
Gurobi 9.0.2 (win64) logging started Sat Oct 10 13:26:47 2020

Changed value of parameter logfile to result\v6.2-20201010T1221\scenario_2030_eff065_cab0000.log
   Prev:   Default: 
Gurobi Optimizer version 9.0.2 build v9.0.2rc0 (win64)
Optimize a model with 1384150 rows, 884815 columns and 3912195 nonzeros
Model fingerprint: 0x996d1d9a
Coefficient statistics:
  Matrix range     [1e-07, 3e+05]
  Objective range  [1e+00, 1e+00]
  Bounds range     [0e+00, 0e+00]
  RHS range        [2e-05, 3e+08]
Warning: Model contains large matrix coefficient range
         Consider reformulating model or setting NumericFocus parameter
         to avoid numerical issues.

Concurrent LP optimizer: primal simplex, dual simplex, and barrier
Showing barrier log only...

Presolve removed 1138075 rows and 656242 columns
Presolve time: 3.70s
Presolved: 246075 rows, 342439 columns, 874418 nonzeros

Ordering time: 0.13s

Barrier statistics:
 Dense cols : 8
 AA' NZ     : 7.669e+05
 Factor NZ  : 4.246e+06 (roughly 270 MBytes of memory)
 Factor Ops : 1.048e+08 (less than 1 second per iteration)
 Threads    : 30

                  Objective                Residual
Iter       Primal          Dual         Primal    Dual     Compl     Time
   0  -1.81693465e+16 -1.58517180e+15  5.65e+06 1.56e+04  2.18e+12     4s
   1  -2.24238678e+15 -1.58334978e+15  6.95e+05 4.91e+06  6.80e+11     5s
   2  -1.28993583e+15 -1.27926396e+15  3.99e+05 6.88e+05  1.87e+11     5s
   3  -4.04757937e+14 -1.04775109e+15  1.24e+05 1.90e+05  5.77e+10     5s
   4  -7.78472234e+13 -5.65867065e+14  2.29e+04 2.96e+04  1.06e+10     6s
   5  -3.04719653e+13 -4.60500291e+14  9.33e+03 2.04e+04  5.58e+09     6s
   6  -1.63031947e+13 -3.20397392e+14  5.12e+03 1.09e+04  3.07e+09     6s
   7  -7.56043987e+12 -1.75103919e+14  2.47e+03 2.98e+03  1.16e+09     6s
   8  -2.18654077e+12 -8.47631434e+13  8.21e+02 4.34e+02  3.13e+08     7s
   9   4.50200294e+11 -1.66671682e+13  6.08e+00 5.72e+00  2.62e+07     7s
  10   2.13895654e+11 -1.68995810e+12  8.46e-01 5.08e-01  2.84e+06     7s
  11   1.09018532e+11 -5.59884590e+11  3.56e-01 1.33e-01  9.91e+05     8s
  12   6.34419363e+10 -3.95919915e+11  1.89e-01 8.41e-02  6.78e+05     8s
  13   3.91031960e+10 -2.48728413e+11  1.03e-01 3.95e-02  4.24e+05     8s
  14   2.01952593e+10 -1.02276720e+11  4.34e-02 7.45e-09  1.80e+05     8s
  15   1.08562406e+10 -4.51988885e+10  1.52e-02 7.45e-09  8.23e+04     8s
  16   1.06055005e+10 -1.73776154e+10  1.45e-02 7.45e-09  4.13e+04     9s
  17   7.11644368e+09 -6.48639045e+09  4.32e-03 7.45e-09  2.00e+04     9s
  18   5.81566494e+09  4.78280378e+08  1.19e-03 5.59e-09  7.83e+03     9s
  19   5.61826137e+09  1.89004019e+09  8.57e-04 5.59e-09  5.47e+03    10s
  20   5.55030949e+09  2.90526178e+09  7.49e-04 3.73e-09  3.88e+03    10s
  21   5.48064949e+09  3.09948566e+09  6.27e-04 3.73e-09  3.49e+03    10s
  22   5.40752415e+09  3.62427542e+09  5.10e-04 3.73e-09  2.61e+03    10s
  23   5.29963366e+09  3.84302663e+09  3.37e-04 2.79e-09  2.13e+03    11s
  24   5.22599446e+09  4.36523054e+09  2.15e-04 2.79e-09  1.26e+03    11s
  25   5.18618056e+09  4.61427133e+09  1.54e-04 1.86e-09  8.38e+02    11s
  26   5.14534277e+09  4.77676509e+09  9.93e-05 1.86e-09  5.40e+02    12s
  27   5.12865509e+09  4.87867497e+09  7.52e-05 1.86e-09  3.66e+02    12s
  28   5.11877443e+09  4.90459432e+09  6.12e-05 1.86e-09  3.14e+02    12s
  29   5.11440176e+09  4.94227664e+09  5.54e-05 2.79e-09  2.52e+02    13s
  30   5.10463591e+09  4.96238885e+09  4.17e-05 1.86e-09  2.08e+02    13s
  31   5.09521651e+09  5.00684980e+09  2.83e-05 1.86e-09  1.29e+02    13s
  32   5.08691511e+09  5.03253486e+09  1.72e-05 1.86e-09  7.97e+01    14s
  33   5.08094539e+09  5.04220376e+09  9.26e-06 1.86e-09  5.67e+01    14s
  34   5.07775546e+09  5.05572365e+09  5.06e-06 1.86e-09  3.23e+01    14s
  35   5.07601211e+09  5.05911002e+09  2.80e-06 1.86e-09  2.47e+01    15s
  36   5.07520549e+09  5.06229006e+09  1.84e-06 1.86e-09  1.89e+01    15s
  37   5.07483244e+09  5.06653438e+09  1.42e-06 1.86e-09  1.21e+01    15s
  38   5.07430790e+09  5.06910286e+09  8.44e-07 1.86e-09  7.62e+00    15s
  39   5.07384801e+09  5.07196159e+09  3.55e-07 2.79e-09  2.76e+00    16s
  40   5.07368373e+09  5.07222111e+09  1.86e-07 2.79e-09  2.14e+00    16s
  41   5.07356075e+09  5.07272267e+09  1.40e-07 1.86e-09  1.23e+00    16s
  42   5.07352151e+09  5.07316177e+09  3.49e-07 1.86e-09  5.26e-01    16s
  43   5.07349835e+09  5.07330871e+09  8.46e-07 1.86e-09  2.77e-01    16s
  44   5.07349272e+09  5.07341215e+09  3.31e-07 1.86e-09  1.18e-01    17s
  45   5.07348738e+09  5.07346565e+09  1.56e-07 2.79e-09  3.18e-02    17s
  46   5.07348577e+09  5.07347923e+09  3.86e-08 2.79e-09  9.55e-03    17s
  47   5.07348539e+09  5.07348206e+09  2.03e-08 2.79e-09  4.86e-03    18s

Barrier solved model in 47 iterations and 17.57 seconds
Optimal objective 5.07348539e+09

Crossover log...

   42911 DPushes remaining with DInf 0.0000000e+00                18s
       0 DPushes remaining with DInf 0.0000000e+00                20s
Warning: Markowitz tolerance tightened to 0.25

  164670 PPushes remaining with PInf 1.0788803e-03                20s
   55921 PPushes remaining with PInf 8.1611106e-02                52s
   44392 PPushes remaining with PInf 7.7616907e-02                55s
    9189 PPushes remaining with PInf 2.5366282e-02                92s
       0 PPushes remaining with PInf 0.0000000e+00               149s

  Push phase complete: Pinf 0.0000000e+00, Dinf 6.1446804e+04    149s

Iteration    Objective       Primal Inf.    Dual Inf.      Time
  181304    5.0734853e+09   0.000000e+00   6.144680e+04    149s
  182879    5.0734853e+09   0.000000e+00   0.000000e+00    152s

Solved with barrier
Solved in 182879 iterations and 151.77 seconds
Optimal objective  5.073485300e+09
Warning: unscaled primal violation = 0.000882096 and residual = 0.000882096
